ioscaa1@Bogdan:~$ minisat 67c533489a498495525efee429340958-cliquecolouring_n15_k9_c8.cnf 67c533.out
WARNING: for repeatability, setting FPU to use double precision
============================[ Problem Statistics ]=============================
|                                                                             |
|  Number of variables:           360                                         |
|  Number of clauses:           10329                                         |
|  Parse time:                   0.00 s                                       |
|  Eliminated clauses:           0.00 Mb                                      |
|  Simplification time:          0.01 s                                       |
|                                                                             |
============================[ Search Statistics ]==============================
| Conflicts |          ORIGINAL         |          LEARNT          | Progress |
|           |    Vars  Clauses Literals |    Limit  Clauses Lit/Cl |          |
===============================================================================
|       100 |     344    10194    31600 |     3737      100     35 |  0.001 % |
|       250 |     344    10194    31600 |     4111      250     40 |  0.001 % |
|       475 |     344    10194    31600 |     4522      475     37 |  0.001 % |
|       812 |     344    10194    31600 |     4975      812     29 |  0.005 % |
|      1318 |     344    10194    31600 |     5472     1318     26 |  0.005 % |
|      2077 |     344    10194    31600 |     6019     2077     23 |  0.005 % |
|      3216 |     344    10194    31600 |     6621     3216     21 |  0.005 % |
|      4924 |     344    10194    31600 |     7283     4924     20 |  0.005 % |
|      7486 |     344    10194    31600 |     8012     3750     18 |  0.018 % |
|     11330 |     344    10194    31600 |     8813     7594     19 |  0.018 % |
|     17096 |     344    10194    31600 |     9694     8910     19 |  0.001 % |
|     25745 |     344    10194    31600 |    10664     7751     20 |  0.001 % |
|     38719 |     344    10194    31600 |    11730     9952     20 |  0.018 % |
|     58180 |     344    10194    31600 |    12903    11599     18 |  0.018 % |
|     87372 |     344    10194    31600 |    14194     8132     19 |  0.005 % |
|    131161 |     344    10194    31600 |    15613     8891     20 |  0.018 % |
|    196845 |     344    10194    31600 |    17175    11332     24 |  0.001 % |
|    295371 |     344    10194    31600 |    18892    14487     21 |  0.005 % |
|    443160 |     344    10194    31600 |    20781     9773     20 |  0.005 % |
|    664843 |     344    10194    31600 |    22860    11530     20 |  0.005 % |
|    997368 |     344    10194    31600 |    25146    19196     25 |  0.018 % |
|   1496156 |     344    10194    31600 |    27660    17943     18 |  0.005 % |
|   2244338 |     344    10194    31600 |    30426    20779     29 |  0.001 % |
|   3366612 |     344    10194    31600 |    33469    13065     21 |  0.005 % |
|   5050023 |     344    10194    31600 |    36816    22120     22 |  0.001 % |
|   7575139 |     344    10194    31600 |    40497    20162     24 |  0.005 % |
|  11362814 |     344    10194    31600 |    44547    39891     29 |  0.005 % |
|  17044326 |     344    10194    31600 |    49002    20532     21 |  0.005 % |
|  25566595 |     344    10194    31600 |    53902    15534     22 |  0.005 % |
|  38349998 |     344    10194    31600 |    59293    20446     22 |  0.005 % |
|  57525103 |     344    10194    31600 |    65222    30513     25 |  0.005 % |
|  86287761 |     344    10194    31600 |    71744    41507     21 |  0.017 % |
| 129431749 |     344    10194    31600 |    78919    54304     29 |  0.005 % |
| 194147731 |     344    10194    31600 |    86810    56659     23 |  0.001 % |
| 291221704 |     344    10194    31600 |    95492    83883     21 |  0.005 % |
| 436832664 |     344    10194    31600 |   105041    82247     19 |  0.005 % |
| 655249104 |     344    10194    31600 |   115545   101303     20 |  0.018 % |
| 982873765 |     344    10194    31600 |   127099    81290     35 |  0.001 % |
| 1474310757 |     344    10194    31600 |   139809    20736     23 |  0.001 % |
| -2083501051 |     344    10194    31600 |   153790   133339     21 |  0.005 % |
| -977767819 |     344    10194    31600 |   169170    48102     21 |  0.001 % |
| 680832029 |     344    10194    31600 |   186087   118213     22 |  0.018 % |
^C===============================================================================
restarts              : 4773400
conflicts             : 5154197695     (68871 /sec)
decisions             : 8205314024     (0.00 % random) (109641 /sec)
propagations          : 111298429647   (1487191 /sec)
conflict literals     : 137110536713   (32.98 % deleted)
Memory used           : 528.00 MB
CPU time              : 74838 s

INDETERMINATE
